%
% Generated Sudoku 25x25
% Density approximation: 0.50
%
x = array2d(1..n, 1..n, [
  14,   _,  13,   _,   _,   9,   5,   _,   _,   _,   6,   _,   3,  10,   _,  23,   _,   7,   _,  25,   2,   _,   1,  24,  11,
   _,   _,   _,   8,   _,   _,   _,  13,   _,  24,  12,   _,   9,  17,   _,   _,   _,   3,   6,   _,  21,  14,  25,   _,  18,
   _,   _,  25,   3,  16,   _,   _,   4,  23,  14,   _,   7,  20,   _,   _,   _,   _,  18,   _,  21,   6,   _,  12,   5,  17,
   _,   _,   7,   _,   _,  12,  11,  16,  21,   3,  18,   1,   5,  25,  24,  14,   8,   _,   _,   _,  20,   _,   _,  23,   4,
   _,   _,  21,   _,   _,  18,   _,  25,   _,   8,   _,   _,   2,   _,   _,   _,  24,   _,  11,   5,   _,   3,   7,  15,   _,
  16,  22,   _,   7,  11,  10,   _,   _,   4,   _,   2,  25,  13,  12,   _,   _,  19,   _,   5,   3,   _,  20,  23,  17,   8,
   _,  21,  18,   4,   _,  25,   _,   _,   _,   _,   _,   _,  19,   _,  20,   7,   _,  16,   _,   _,  13,  15,  24,   _,   6,
   2,   _,  15,  12,   9,  19,   6,   _,   _,  23,  10,   3,  24,   8,  17,   _,  14,   1,   _,   _,   5,   _,   _,   _,  25,
  25,   _,   5,  20,  14,  13,   _,   3,   2,   _,   _,  16,   _,   6,   1,  21,  17,   _,  15,   8,   _,   _,   _,  11,   _,
   _,   _,  24,   _,   _,  20,   _,  14,   _,   _,   _,   _,  15,   _,   _,   _,   _,   _,   _,   _,   9,   1,   _,   _,   _,
   _,   _,  12,  19,  24,  15,   8,   2,   1,   _,   _,  22,   _,   9,   _,   _,   _,  21,   4,  17,   _,   _,   5,  20,   _,
   _,   _,   _,   5,   _,   _,   9,   _,   _,  20,   _,   _,   _,   _,   6,  18,   _,   _,   _,   _,   _,  17,   _,   _,   _,
  20,   7,   9,   _,   _,   5,   _,   _,   _,   _,  17,  11,  25,  21,  16,   _,   3,   6,   _,   _,  15,   _,  18,   _,   _,
   _,   1,  16,   _,  21,   4,   _,   _,  17,   _,  15,   _,  12,   _,   5,   _,   7,   _,  23,  10,  19,   _,   _,   _,   _,
   _,   _,   _,   _,  17,   _,  12,   7,   _,  19,   _,  20,   _,   4,  10,   _,   _,   _,   _,  14,  24,   _,  21,   2,   _,
   _,   _,   8,   _,   _,   _,  25,   9,   _,  21,   _,   _,  11,  16,  22,  10,  15,   _,   _,   _,   4,   _,   _,  18,   _,
  23,   9,   4,   _,  18,  24,   3,  10,   _,  15,   1,   _,   6,   _,   _,  11,   _,   _,   _,   _,   _,   2,   _,  22,   _,
  21,   _,   _,   _,   7,   1,  20,   6,  18,   _,   3,  14,   _,  23,   _,  25,   _,   _,   _,   4,   _,   5,  13,   9,  16,
  22,  17,   1,   _,  25,  14,  13,   5,  16,   2,  19,  24,   _,   _,   _,   3,   _,  23,   _,   _,   _,  10,   _,   8,  21,
  13,   _,   _,  16,   _,   _,   _,  22,   _,   7,   _,   _,   8,  18,  15,   2,   _,  19,   1,  24,   _,   6,   _,   _,   _,
  12,  14,  11,   _,  15,   _,   _,   _,  10,   _,   _,   _,  23,  24,   _,   _,   4,   _,   _,  22,  16,  21,   2,   _,   _,
   7,   4,   2,  21,   _,   _,   _,   _,   _,   _,   _,   _,  22,   _,   3,  16,  18,  10,   _,   _,   _,   _,   _,  14,  20,
   _,   _,   _,   1,   _,   3,   _,   _,   _,  13,   5,   _,   _,   _,   _,  19,   9,   _,  14,   _,  22,  18,  17,   4,  15,
  10,   _,  23,  13,   3,  11,   _,   _,   _,   _,   4,  18,  17,   7,   _,  15,   _,   2,   _,   _,   _,  12,   8,   _,   _,
   _,   _,   _,   _,   _,  21,   _,   _,   _,   _,  20,   _,  16,   1,   _,   _,   _,   _,   _,  13,  11,   7,   6,   _,   3
]);

n = 25;
